18 4
83 47 55 88 49 11 38 84 61 52 59 31 18 37 91 30 40 84
42 45 35 17 89 89 63 16 44 36 15 17 72 96 14 16 91 88
54 41 84 90 54 89 63 15 74 81 64 100 82 31 73 44 37 79
55 98 48 14 22 53 19 80 23 56 66 68 93 62 38 43 69 32
